20	5
0	8	9	3	2	16	4	5	1	6
1	1	8
2	0
3	1	8
4	1	12
5	1	7
6	1	17
7	1	21
8	1	14
9	1	18
10	1	20
11	1	19
12	1	15
13	0
14	0
15	1	13
16	1	9
17	1	14
18	1	15
19	1	21
20	1	21
21	0
0	0	0	0	0	0	0
1	8	0	0	0	3	0
2	10	1	5	0	0	0
3	6	1	3	0	0	0
4	10	3	1	0	0	0
5	5	5	0	0	1	2
6	7	0	3	0	0	0
7	9	3	0	0	1	0
8	2	0	3	0	3	3
9	4	2	0	5	3	2
10	4	0	2	0	0	3
11	2	4	3	0	3	5
12	2	0	0	5	0	0
13	2	0	0	0	3	0
14	5	4	0	2	4	0
15	4	0	4	2	0	1
16	1	5	1	0	0	0
17	2	5	2	3	2	3
18	6	1	4	0	0	0
19	9	4	0	0	3	0
20	6	3	5	1	2	5
21	0	0	0	0	0	0
8	7	6	5	6
